20
0 1 0.2 0.02
0 2 0.56 0.16
0 3 0.6 0.1
0 4 0.56 0.18
0 5 0.56 0.2
0 6 0.6 0.07
0 7 0.77 0.29
0 8 0.74 0.28
0 9 0.72 0.26
0 10 0.58 0.28
0 11 0.62 0.31
0 12 0.62 0.31
0 13 0.74 0.3
0 14 0.66 0.12
0 15 0.66 0.32
0 16 0.66 0.23
0 17 0.48 0.24
0 18 0.6 0.06
0 19 0.4 0.22
1 2 0.38 0.18
1 3 0.4 0.12
1 4 0.7 0.2
1 5 0.36 0.22
1 6 0.8 0.09
1 7 0.57 0.31
1 8 0.56 0.3
1 9 0.52 0.28
1 10 0.56 0.3
1 11 0.63 0.33
1 12 0.56 0.33
1 13 0.7 0.28
1 14 0.52 0.14
1 15 0.57 0.3
1 16 0.65 0.25
1 17 0.68 0.26
1 18 0.49 0.08
1 19 0.58 0.24
2 3 0.5 0.06
2 4 0.48 0.24
2 5 0.48 0.22
2 6 0.5 0.11
2 7 0.43 0.33
2 8 0.18 0.14
2 9 0.62 0.22
2 10 0.18 0.12
2 11 0.55 0.3
2 12 0.58 0.27
2 13 0.5 0.28
2 14 0.58 0.28
2 15 0.51 0.26
2 16 0.44 0.28
2 17 0.46 0.34
2 18 0.46 0.1
2 19 0.52 0.18
3 4 0.65 0.24
3 5 0.6 0.22
3 6 0.51 0.05
3 7 0.66 0.27
3 8 0.32 0.18
3 9 0.62 0.16
3 10 0.57 0.18
3 11 0.53 0.28
3 12 0.52 0.21
3 13 0.56 0.22
3 14 0.46 0.22
3 15 0.64 0.32
3 16 0.25 0.22
3 17 0.64 0.28
3 18 0.09 0.04
3 19 0.51 0.22
4 5 0.34 0.02
4 6 0.5 0.25
4 7 0.72 0.46
4 8 0.55 0.38
4 9 0.84 0.26
4 10 0.3 0.29
4 11 0.54 0.26
4 12 0.45 0.29
4 13 0.62 0.13
4 14 0.89 0.3
4 15 0.44 0.36
4 16 0.72 0.32
4 17 0.58 0.42
4 18 0.56 0.24
4 19 0.85 0.2
5 6 0.83 0.27
5 7 0.52 0.44
5 8 0.6 0.36
5 9 0.5 0.24
5 10 0.6 0.31
5 11 0.66 0.24
5 12 0.52 0.27
5 13 0.34 0.11
5 14 0.55 0.32
5 15 0.68 0.38
5 16 0.7 0.3
5 17 0.64 0.42
5 18 0.69 0.26
5 19 0.6 0.18
6 7 0.34 0.22
6 8 0.68 0.23
6 9 0.38 0.21
6 10 0.68 0.23
6 11 0.68 0.33
6 12 0.5 0.26
6 13 0.7 0.25
6 14 0.5 0.19
6 15 0.72 0.37
6 16 0.62 0.27
6 17 0.57 0.26
6 18 0.42 0.01
6 19 0.58 0.19
7 8 0.48 0.44
7 9 0.49 0.34
7 10 0.61 0.45
7 11 0.6 0.5
7 12 0.77 0.46
7 13 0.36 0.36
7 14 0.64 0.38
7 15 0.58 0.57
7 16 0.5 0.48
7 17 0.37 0.24
7 18 0.64 0.23
7 19 0.64 0.41
8 9 0.68 0.34
8 10 0.36 0.26
8 11 0.56 0.25
8 12 0.64 0.39
8 13 0.62 0.38
8 14 0.6 0.4
8 15 0.33 0.2
8 16 0.52 0.17
8 17 0.36 0.34
8 18 0.41 0.22
8 19 0.46 0.29
9 10 0.8 0.34
9 11 0.88 0.16
9 12 0.64 0.34
9 13 0.74 0.35
9 14 0.49 0.34
9 15 0.64 0.48
9 16 0.52 0.24
9 17 0.74 0.44
9 18 0.71 0.2
9 19 0.55 0.36
10 11 0.69 0.42
10 12 0.71 0.24
10 13 0.32 0.32
10 14 0.74 0.29
10 15 0.63 0.33
10 16 0.44 0.4
10 17 0.28 0.24
10 18 0.59 0.22
10 19 0.7 0.28
11 12 0.5 0.31
11 13 0.66 0.24
11 14 0.89 0.34
11 15 0.54 0.36
11 16 0.36 0.08
11 17 0.7 0.38
11 18 0.44 0.32
11 19 0.62 0.2
12 13 0.71 0.16
12 14 0.6 0.2
12 15 0.69 0.51
12 16 0.27 0.23
12 17 0.84 0.22
12 18 0.61 0.25
12 19 0.53 0.32
13 14 0.42 0.21
13 15 0.72 0.4
13 16 0.44 0.21
13 17 0.6 0.35
13 18 0.65 0.26
13 19 0.46 0.16
14 15 0.56 0.44
14 16 0.71 0.35
14 17 0.52 0.14
14 18 0.55 0.18
14 19 0.64 0.34
15 16 0.42 0.28
15 17 0.69 0.54
15 18 0.72 0.36
15 19 0.41 0.24
16 17 0.58 0.3
16 18 0.34 0.26
16 19 0.26 0.12
17 18 0.69 0.27
17 19 0.56 0.42
18 19 0.6 0.18
